23
1 0 10
2 0 12
2 1 15
3 0 2
3 1 10
3 2 16
4 0 14
4 1 11
4 2 8
4 3 8
5 0 2
5 1 8
5 2 11
5 3 9
5 4 6
6 0 1
6 1 10
6 2 2
6 3 8
6 4 8
6 5 8
7 0 10
7 1 7
7 2 14
7 3 8
7 4 3
7 5 9
7 6 16
8 0 4
8 1 16
8 2 13
8 3 9
8 4 10
8 5 4
8 6 3
8 7 7
9 0 2
9 1 13
9 2 7
9 3 11
9 4 6
9 5 11
9 6 2
9 7 4
9 8 11
10 0 10
10 1 15
10 2 9
10 3 13
10 4 1
10 5 7
10 6 1
10 7 8
10 8 7
10 9 12
11 0 14
11 1 4
11 2 4
11 3 9
11 4 15
11 5 1
11 6 6
11 7 15
11 8 12
11 9 3
11 10 5
12 0 4
12 1 4
12 2 7
12 3 4
12 4 12
12 5 3
12 6 14
12 7 5
12 8 7
12 9 13
12 10 15
12 11 7
13 0 13
13 1 16
13 2 15
13 3 15
13 4 4
13 5 10
13 6 5
13 7 14
13 8 1
13 9 8
13 10 1
13 11 9
13 12 13
14 0 1
14 1 9
14 2 9
14 3 4
14 4 6
14 5 15
14 6 9
14 7 11
14 8 16
14 9 10
14 10 13
14 11 6
14 12 14
14 13 3
15 0 7
15 1 2
15 2 12
15 3 5
15 4 16
15 5 6
15 6 8
15 7 10
15 8 13
15 9 2
15 10 16
15 11 7
15 12 9
15 13 3
15 14 15
16 0 7
16 1 11
16 2 2
16 3 7
16 4 9
16 5 2
16 6 10
16 7 2
16 8 13
16 9 4
16 10 13
16 11 15
16 12 5
16 13 9
16 14 10
16 15 15
17 0 7
17 1 2
17 2 3
17 3 7
17 4 8
17 5 13
17 6 16
17 7 16
17 8 4
17 9 16
17 10 15
17 11 1
17 12 5
17 13 8
17 14 12
17 15 3
17 16 5
18 0 14
18 1 16
18 2 12
18 3 6
18 4 14
18 5 1
18 6 13
18 7 14
18 8 8
18 9 8
18 10 13
18 11 8
18 12 13
18 13 4
18 14 13
18 15 11
18 16 11
18 17 2
19 0 16
19 1 15
19 2 7
19 3 1
19 4 11
19 5 15
19 6 8
19 7 2
19 8 9
19 9 6
19 10 9
19 11 13
19 12 10
19 13 2
19 14 9
19 15 8
19 16 15
19 17 4
19 18 4
20 0 6
20 1 9
20 2 9
20 3 3
20 4 7
20 5 4
20 6 12
20 7 4
20 8 9
20 9 5
20 10 15
20 11 7
20 12 2
20 13 5
20 14 9
20 15 10
20 16 16
20 17 5
20 18 7
20 19 9
21 0 15
21 1 16
21 2 13
21 3 10
21 4 13
21 5 2
21 6 11
21 7 10
21 8 4
21 9 8
21 10 9
21 11 14
21 12 7
21 13 6
21 14 2
21 15 11
21 16 9
21 17 16
21 18 11
21 19 8
21 20 2
22 0 4
22 1 14
22 2 13
22 3 13
22 4 13
22 5 15
22 6 16
22 7 16
22 8 9
22 9 14
22 10 16
22 11 13
22 12 8
22 13 10
22 14 6
22 15 8
22 16 15
22 17 15
22 18 14
22 19 7
22 20 2
22 21 13
